100 7500
1 48
2 4
1 23
2 39
2 34
1 12
1 24
2 12
2 19
1 5
1 37
1 16
2 44
1 15
1 19
1 33
2 34
2 18
2 21
2 29
1 41
2 36
2 10
1 48
1 6
2 25
1 1
1 32
1 20
1 30
1 38
2 11
2 45
1 11
1 38
1 2
2 22
1 27
1 26
1 8
2 29
2 7
1 47
1 40
2 41
2 40
1 14
1 16
1 24
1 28
2 13
2 35
2 4
2 50
1 47
1 31
1 31
2 26
1 13
2 35
2 30
2 5
2 9
1 43
2 49
1 1
1 21
1 46
2 7
2 17
2 23
1 43
1 25
2 42
2 2
2 50
2 22
1 28
1 46
2 49
2 44
2 45
2 18
1 32
1 37
1 36
2 33
1 42
2 20
2 9
1 27
1 3
2 10
2 15
2 3
2 17
1 6
1 14
2 8
1 39
